Route #1: 10 46 15 7 44 27 39 24
Route #2: 37 6 33 4 23 40 8 11 12
Route #3: 29 21 28 17 25 43 34 9 20
Route #4: 18 22 42 30 32 35 41 2
Route #5: 14 5 31 3 38
Route #6: 13 36 19 26 45
Route #7: 16
cost 1049
